(declare-datatypes ((Lst 0)) (((cons (param68 Int) (param69 Lst))(nil))))
(declare-datatypes ((Queue 0)) (((queue  (param70 Lst) (param71 Lst)))))
(declare-fun append (Lst Lst ) Lst)
(declare-fun len (Lst ) Int)
(declare-fun qlen (Int ) Queue)
(declare-fun len (Int ) Lst)
(assert (forall ((|_FH_2'| Lst)) (= (append nil |_FH_2'|) |_FH_2'|)))
(assert (forall ((x Int) (_FH_0 Lst) (_FH_1 Lst)) (= (append (cons x _FH_0) _FH_1) (cons x (append _FH_0 _FH_1)))))
(assert (not (forall ((_FH_6 Int) (_FH_4 Int) (_FH_11 Int)) (=> (= (qlen _FH_6) (queue (len _FH_4) (len _FH_11))) (= (+ _FH_4 _FH_11) _FH_6)))))
(check-sat)